[runlim] version:		1.10
[runlim] time limit:		1800 seconds
[runlim] real time limit:	1800 seconds
[runlim] space limit:		30000 MB
[runlim] argv[0]:		python
[runlim] argv[1]:		FE.py
[runlim] argv[2]:		B-ibm32.mtx.rnd
[runlim] start:			Thu Oct  3 13:57:30 2024
[runlim] main pid:		411488
[runlim] log captured:
9
9
Version identifier: 20.1.0.0 | 2020-11-10 | 9bedb6d68
CPXPARAM_Simplex_PGradient                       4
CPXPARAM_Read_DataCheck                          1
CPXPARAM_MIP_Strategy_File                       3
CPXPARAM_TimeLimit                               1800
CPXPARAM_WorkMem                                 122880
Tried aggregator 1 time.
MIP Presolve eliminated 693 rows and 20 columns.
MIP Presolve modified 697 coefficients.
Reduced MIP has 1547 rows, 1004 columns, and 32888 nonzeros.
Reduced MIP has 1004 binaries, 0 generals, 0 SOSs, and 0 indicators.
Presolve time = 0.17 sec. (102.85 ticks)
Probing fixed 18 vars, tightened 0 bounds.
Probing time = 0.02 sec. (2.66 ticks)
Tried aggregator 1 time.
Detecting symmetries...
MIP Presolve eliminated 2 rows and 18 columns.
MIP Presolve modified 71 coefficients.
Reduced MIP has 1541 rows, 986 columns, and 31875 nonzeros.
Reduced MIP has 986 binaries, 0 generals, 0 SOSs, and 0 indicators.
Presolve time = 0.05 sec. (29.11 ticks)
Probing time = 0.01 sec. (2.14 ticks)
Clique table members: 2599.
MIP emphasis: balance optimality and feasibility.
MIP search method: dynamic search.
Parallel mode: deterministic, using up to 8 threads.
Root relaxation solution time = 0.42 sec. (212.97 ticks)

        Nodes                                         Cuts/
   Node  Left     Objective  IInf  Best Integer    Best Bound    ItCnt     Gap

      0     0        0.0000   257                      0.0000     1022         
      0     0        0.0000   229                 Cliques: 36     1600         
      0     0        0.0000   292                   Cuts: 191     2853         
      0     0        0.0000    82                  Cliques: 8     3017         
      0     0        0.0000   265                   Cuts: 103     4663         
[runlim] sample:		60.8 time, 10.0 real, 127.1 MB
Detecting symmetries...
      0     2        0.0000    77                      0.0000     4663         
Elapsed time = 16.73 sec. (6781.29 ticks, tree = 0.02 MB, solutions = 0)
      1     3        0.0000   176                      0.0000     7605         
      3     4        0.0000   159                      0.0000    10221         
      6     3    infeasible                            0.0000    13673         
     22     8    infeasible                            0.0000    19702         
[runlim] sample:		117.8 time, 20.0 real, 132.9 MB
*    99+   20                            0.0000        0.0000             0.00%
    102    18    infeasible              0.0000        0.0000    34284    0.00%

Clique cuts applied:  40
Zero-half cuts applied:  4

Root node processing (before b&c):
  Real time             =   16.60 sec. (6773.06 ticks)
Parallel b&c, 8 threads:
  Real time             =    3.38 sec. (1685.88 ticks)
  Sync time (average)   =    1.80 sec.
  Wait time (average)   =    0.00 sec.
                          ------------
Total (root+branch&cut) =   19.98 sec. (8458.94 ticks)
Trạng thái giải pháp: integer optimal solution
Giá trị Antibandwidth: 9
Giá trị Antibandwidth: 9
Các nhãn: [2, 13, 9, 18, 12, 20, 26, 5, 29, 7, 10, 22, 16, 11, 8, 15, 25, 6, 32, 21, 4, 27, 30, 3, 1, 31, 24, 28, 17, 19, 23, 14]
Bài toán Antibandwidth
[runlim] end:			Thu Oct  3 13:57:50 2024
[runlim] status:		ok
[runlim] result:		0
[runlim] children:		0
[runlim] real:			20.36 seconds
[runlim] time:			118.42 seconds
[runlim] space:			132.9 MB
[runlim] samples:		203
